1 2 3 4 5 6 108 7 8 9 10 11 12 13 113 112 111 110 109 212 213 88 87 86 85 84 186 187 188 63 62 61 60 59 162 163 38 37 36 35 34 138 137 136 135 134 133 132 131 130 129 128 127 126 125 124 123 122 121 120 119 19 20 21 22 23 144 143 142 141 140 118 117 116 115 114 14 15 16 17 18 139 39 40 41 42 43 164 64 65 165 166 167 168 169 48 47 46 45 44 145 146 147 148 149 150 28 27 26 25 24 29 30 31 32 33 157 158 159 160 161 56 55 54 156 155 154 153 152 151 49 50 51 52 53 177 178 179 180 181 182 58 57 185 184 183 79 80 81 82 83 208 209 210 211 107 106 105 104 207 206 205 204 203 202 201 78 77 76 75 74 176 175 174 173 172 171 170 69 70 71 72 73 194 193 192 191 190 66 67 68 189 89 90 91 92 93 214 215 216 217 218 219 220 221 222 98 97 96 95 94 195 196 197 198 199 200 99 100 101 102 103 223 224 225
